Route #1: 26 12 40 17 51 6 68 4 75
Route #2: 34 52 27 13 54 57 15 5 29 45
Route #3: 30 48 47 36 37 20 70 60 71 69 21
Route #4: 2 74 28 61 64 22 62 73 33
Route #5: 16 63 1 43 42 41 56 23 49 24 3
Route #6: 44 32 50 18 55 25 31 9 39 72
Route #7: 58 10 38 65 66 11 53
Route #8: 7 35 14 59 19 8 46 67
Cost 770